-1 -937 0
-935 1 0
109 -937 0
-937 0
1 0
-105 0
833 0
209 0
-729 0
-313 0
53 0
-417 0
-157 0
-469 0
-625 0
27 0
79 0
885 0
-261 0
-131 0
-14 0
-287 0
-443 0
-118 0
-573 0
-599 0
-183 0
-339 0
-495 0
-651 0
-781 0
0
